p tw 53 195
0 1
0 2
0 3
0 4
0 5
0 6
1 2
1 3
1 4
1 5
1 6
2 3
2 4
2 5
2 6
2 10
2 13
2 14
2 15
2 16
2 17
2 22
2 29
2 30
2 31
2 32
2 33
3 4
3 5
3 6
4 5
4 6
4 32
4 38
4 42
4 45
4 46
4 47
5 6
7 8
7 9
7 10
7 11
7 12
8 9
8 10
8 11
8 12
9 10
9 11
9 12
10 11
10 12
10 13
10 14
10 15
10 16
10 17
10 25
10 26
10 27
10 28
11 12
13 14
13 15
13 16
13 17
14 15
14 16
14 17
14 25
14 26
14 27
14 28
15 16
15 17
16 17
16 25
16 26
16 27
16 28
18 19
18 20
18 21
18 22
18 23
18 24
19 20
19 21
19 22
19 23
19 24
20 21
20 22
20 23
20 24
21 22
21 23
21 24
22 23
22 24
22 29
22 30
22 31
22 32
22 33
23 24
25 26
25 27
25 28
26 27
26 28
26 30
26 40
26 41
26 42
26 43
26 44
26 33
26 48
26 49
26 50
26 51
26 52
27 28
29 30
29 31
29 32
29 33
30 31
30 32
30 33
30 40
30 41
30 42
30 43
30 44
31 32
31 33
32 33
32 38
32 42
32 45
32 46
32 47
33 48
33 49
33 50
33 51
33 52
34 35
34 36
34 37
34 38
34 39
35 36
35 37
35 38
35 39
36 37
36 38
36 39
37 38
37 39
38 39
38 42
38 45
38 46
38 47
40 41
40 42
40 43
40 44
41 42
41 43
41 44
42 43
42 44
42 45
42 46
42 47
43 44
45 46
45 47
46 47
48 49
48 50
48 51
48 52
49 50
49 51
49 52
50 51
50 52
51 52
